Maximize

T_0


Subject To

a0: 588.0 x_0 + 438.0 x_1 + 202.0 x_2 + 399.0 x_3 + 560.0 x_4 + 246.0 x_5 + 196.0 x_6 + 502.0 x_7 + 21.0 x_8 + 309.0 x_9 + 169.0 x_10 + 550.0 x_11 + 369.0 x_12 + 50.0 x_13 + 401.0 x_14 + 76.0 x_15 + 528.0 x_16 + 937.0 x_17 + 11.0 x_18 + 402.0 x_19 + 402.0 x_20 + 317.0 x_21 + 226.0 x_22 + 111.0 x_23 + 54.0 x_24 + 447.0 x_25 + 127.0 x_26 + 411.0 x_27 + 709.0 x_28 + 136.0 x_29 + 966.0 x_30 + 366.0 x_31 + 757.0 x_32 + 370.0 x_33 + 841.0 x_34 + 209.0 x_35 + 120.0 x_36 + 315.0 x_37 + 35.0 x_38 + 870.0 x_39 + 300.0 x_40 + 657.0 x_41 + 1102.0 x_42 + 393.0 x_43 + 623.0 x_44 + 916.0 x_45 + 359.0 x_46 + 397.0 x_47 + 159.0 x_48 + 199.0 x_49 + 191.0 x_50 + 10.0 x_51 + 308.0 x_52 + 332.0 x_53 + 701.0 x_54 + 277.0 x_55 + 989.0 x_56 + 198.0 x_57 + 267.0 x_58 + 582.0 x_59 + 266.0 x_60 + 423.0 x_61 + 245.0 x_62 + 480.0 x_63 + 847.0 x_64 + 764.0 x_65 + 321.0 x_66 + 167.0 x_67 + 153.0 x_68 + 6.0 x_69 + 517.0 x_70 + 126.0 x_71 + 261.0 x_72 + 548.0 x_73 + 104.0 x_74 + 210.0 x_75 + 85.0 x_76 + 40.0 x_77 + 696.0 x_78 + 140.0 x_79 + 80.0 x_80 + 72.0 x_81 + 361.0 x_82 + 205.0 x_83 + 677.0 x_84 + 99.0 x_85 + 819.0 x_86 + 496.0 x_87 + 662.0 x_88 + 478.0 x_89 + 152.0 x_90 + 427.0 x_91 + 298.0 x_92 + 49.0 x_93 + 619.0 x_94 + 556.0 x_95 + 22.0 x_96 + 360.0 x_97 + 153.0 x_98 + 717.0 x_99 <= 25000.0
b0: 725.0 x_0 + 390.0 x_1 + 482.0 x_2 + 853.0 x_3 + 140.0 x_4 + 45.0 x_5 + 67.0 x_6 + 401.0 x_7 + 51.0 x_8 + 208.0 x_9 + 151.0 x_10 + 627.0 x_11 + 453.0 x_12 + 105.0 x_13 + 398.0 x_14 + 479.0 x_15 + 121.0 x_16 + 297.0 x_17 + 131.0 x_18 + 315.0 x_19 + 186.0 x_20 + 422.0 x_21 + 292.0 x_22 + 75.0 x_23 + 432.0 x_24 + 83.0 x_25 + 55.0 x_26 + 471.0 x_27 + 317.0 x_28 + 48.0 x_29 + 705.0 x_30 + 621.0 x_31 + 224.0 x_32 + 272.0 x_33 + 379.0 x_34 + 281.0 x_35 + 481.0 x_36 + 666.0 x_37 + 85.0 x_38 + 313.0 x_39 + 284.0 x_40 + 450.0 x_41 + 874.0 x_42 + 311.0 x_43 + 391.0 x_44 + 392.0 x_45 + 280.0 x_46 + 651.0 x_47 + 207.0 x_48 + 159.0 x_49 + 41.0 x_50 + 21.0 x_51 + 224.0 x_52 + 185.0 x_53 + 303.0 x_54 + 175.0 x_55 + 303.0 x_56 + 108.0 x_57 + 209.0 x_58 + 188.0 x_59 + 446.0 x_60 + 144.0 x_61 + 15.0 x_62 + 674.0 x_63 + 509.0 x_64 + 152.0 x_65 + 175.0 x_66 + 139.0 x_67 + 95.0 x_68 + 132.0 x_69 + 178.0 x_70 + 134.0 x_71 + 99.0 x_72 + 539.0 x_73 + 151.0 x_74 + 143.0 x_75 + 30.0 x_76 + 18.0 x_77 + 550.0 x_78 + 128.0 x_79 + 168.0 x_80 + 286.0 x_81 + 36.0 x_82 + 210.0 x_83 + 445.0 x_84 + 224.0 x_85 + 635.0 x_86 + 121.0 x_87 + 391.0 x_88 + 79.0 x_89 + 137.0 x_90 + 292.0 x_91 + 197.0 x_92 + 119.0 x_93 + 551.0 x_94 + 72.0 x_95 + 328.0 x_96 + 486.0 x_97 + 231.0 x_98 + 217.0 x_99 <= 25000.0
c0: x_0 - T_0 < 0
c1: x_1 - T_0 < 0
c2: x_2 - T_0 < 0
c3: x_3 - T_0 < 0
c4: x_4 - T_0 < 0
c5: x_5 - T_0 < 0
c6: x_6 - T_0 < 0
c7: x_7 - T_0 < 0
c8: x_8 - T_0 < 0
c9: x_9 - T_0 < 0
c10: x_10 - T_0 < 0
c11: x_11 - T_0 < 0
c12: x_12 - T_0 < 0
c13: x_13 - T_0 < 0
c14: x_14 - T_0 < 0
c15: x_15 - T_0 < 0
c16: x_16 - T_0 < 0
c17: x_17 - T_0 < 0
c18: x_18 - T_0 < 0
c19: x_19 - T_0 < 0
c20: x_20 - T_0 < 0
c21: x_21 - T_0 < 0
c22: x_22 - T_0 < 0
c23: x_23 - T_0 < 0
c24: x_24 - T_0 < 0
c25: x_25 - T_0 < 0
c26: x_26 - T_0 < 0
c27: x_27 - T_0 < 0
c28: x_28 - T_0 < 0
c29: x_29 - T_0 < 0
c30: x_30 - T_0 < 0
c31: x_31 - T_0 < 0
c32: x_32 - T_0 < 0
c33: x_33 - T_0 < 0
c34: x_34 - T_0 < 0
c35: x_35 - T_0 < 0
c36: x_36 - T_0 < 0
c37: x_37 - T_0 < 0
c38: x_38 - T_0 < 0
c39: x_39 - T_0 < 0
c40: x_40 - T_0 < 0
c41: x_41 - T_0 < 0
c42: x_42 - T_0 < 0
c43: x_43 - T_0 < 0
c44: x_44 - T_0 < 0
c45: x_45 - T_0 < 0
c46: x_46 - T_0 < 0
c47: x_47 - T_0 < 0
c48: x_48 - T_0 < 0
c49: x_49 - T_0 < 0
c50: x_50 - T_0 < 0
c51: x_51 - T_0 < 0
c52: x_52 - T_0 < 0
c53: x_53 - T_0 < 0
c54: x_54 - T_0 < 0
c55: x_55 - T_0 < 0
c56: x_56 - T_0 < 0
c57: x_57 - T_0 < 0
c58: x_58 - T_0 < 0
c59: x_59 - T_0 < 0
c60: x_60 - T_0 < 0
c61: x_61 - T_0 < 0
c62: x_62 - T_0 < 0
c63: x_63 - T_0 < 0
c64: x_64 - T_0 < 0
c65: x_65 - T_0 < 0
c66: x_66 - T_0 < 0
c67: x_67 - T_0 < 0
c68: x_68 - T_0 < 0
c69: x_69 - T_0 < 0
c70: x_70 - T_0 < 0
c71: x_71 - T_0 < 0
c72: x_72 - T_0 < 0
c73: x_73 - T_0 < 0
c74: x_74 - T_0 < 0
c75: x_75 - T_0 < 0
c76: x_76 - T_0 < 0
c77: x_77 - T_0 < 0
c78: x_78 - T_0 < 0
c79: x_79 - T_0 < 0
c80: x_80 - T_0 < 0
c81: x_81 - T_0 < 0
c82: x_82 - T_0 < 0
c83: x_83 - T_0 < 0
c84: x_84 - T_0 < 0
c85: x_85 - T_0 < 0
c86: x_86 - T_0 < 0
c87: x_87 - T_0 < 0
c88: x_88 - T_0 < 0
c89: x_89 - T_0 < 0
c90: x_90 - T_0 < 0
c91: x_91 - T_0 < 0
c92: x_92 - T_0 < 0
c93: x_93 - T_0 < 0
c94: x_94 - T_0 < 0
c95: x_95 - T_0 < 0
c96: x_96 - T_0 < 0
c97: x_97 - T_0 < 0
c98: x_98 - T_0 < 0
c99: x_99 - T_0 < 0
d0: 342.0 x_0 < 100
d1: 208.0 x_1 < 100
d2: 310.0 x_2 < 100
d3: 341.0 x_3 < 100
d4: 52.0 x_4 < 100
d5: 179.0 x_5 < 100
d6: 323.0 x_6 < 100
d7: 360.0 x_7 < 100
d8: 420.0 x_8 < 100
d9: 126.0 x_9 < 100
d10: 449.0 x_10 < 100
d11: 80.0 x_11 < 100
d12: 146.0 x_12 < 100
d13: 146.0 x_13 < 100
d14: 122.0 x_14 < 100
d15: 423.0 x_15 < 100
d16: 63.0 x_16 < 100
d17: 454.0 x_17 < 100
d18: 397.0 x_18 < 100
d19: 203.0 x_19 < 100
d20: 437.0 x_20 < 100
d21: 54.0 x_21 < 100
d22: 482.0 x_22 < 100
d23: 274.0 x_23 < 100
d24: 435.0 x_24 < 100
d25: 343.0 x_25 < 100
d26: 471.0 x_26 < 100
d27: 30.0 x_27 < 100
d28: 238.0 x_28 < 100
d29: 447.0 x_29 < 100
d30: 81.0 x_30 < 100
d31: 122.0 x_31 < 100
d32: 237.0 x_32 < 100
d33: 56.0 x_33 < 100
d34: 421.0 x_34 < 100
d35: 360.0 x_35 < 100
d36: 176.0 x_36 < 100
d37: 307.0 x_37 < 100
d38: 194.0 x_38 < 100
d39: 121.0 x_39 < 100
d40: 52.0 x_40 < 100
d41: 303.0 x_41 < 100
d42: 471.0 x_42 < 100
d43: 185.0 x_43 < 100
d44: 444.0 x_44 < 100
d45: 107.0 x_45 < 100
d46: 485.0 x_46 < 100
d47: 116.0 x_47 < 100
d48: 90.0 x_48 < 100
d49: 189.0 x_49 < 100
d50: 162.0 x_50 < 100
d51: 414.0 x_51 < 100
d52: 437.0 x_52 < 100
d53: 230.0 x_53 < 100
d54: 154.0 x_54 < 100
d55: 499.0 x_55 < 100
d56: 367.0 x_56 < 100
d57: 372.0 x_57 < 100
d58: 109.0 x_58 < 100
d59: 266.0 x_59 < 100
d60: 412.0 x_60 < 100
d61: 368.0 x_61 < 100
d62: 204.0 x_62 < 100
d63: 422.0 x_63 < 100
d64: 335.0 x_64 < 100
d65: 239.0 x_65 < 100
d66: 12.0 x_66 < 100
d67: 249.0 x_67 < 100
d68: 395.0 x_68 < 100
d69: 353.0 x_69 < 100
d70: 56.0 x_70 < 100
d71: 231.0 x_71 < 100
d72: 252.0 x_72 < 100
d73: 355.0 x_73 < 100
d74: 254.0 x_74 < 100
d75: 243.0 x_75 < 100
d76: 210.0 x_76 < 100
d77: 239.0 x_77 < 100
d78: 472.0 x_78 < 100
d79: 218.0 x_79 < 100
d80: 96.0 x_80 < 100
d81: 266.0 x_81 < 100
d82: 246.0 x_82 < 100
d83: 416.0 x_83 < 100
d84: 111.0 x_84 < 100
d85: 371.0 x_85 < 100
d86: 26.0 x_86 < 100
d87: 365.0 x_87 < 100
d88: 174.0 x_88 < 100
d89: 393.0 x_89 < 100
d90: 278.0 x_90 < 100
d91: 94.0 x_91 < 100
d92: 245.0 x_92 < 100
d93: 440.0 x_93 < 100
d94: 310.0 x_94 < 100
d95: 200.0 x_95 < 100
d96: 389.0 x_96 < 100
d97: 61.0 x_97 < 100
d98: 379.0 x_98 < 100
d99: 152.0 x_99 < 100



Bounds


x_0 <= 175
x_1 <= 325
x_2 <= 391
x_3 <= 149
x_4 <= 355
x_5 <= 122
x_6 <= 307
x_7 <= 165
x_8 <= 305
x_9 <= 356
x_10 <= 351
x_11 <= 471
x_12 <= 456
x_13 <= 380
x_14 <= 271
x_15 <= 364
x_16 <= 345
x_17 <= 256
x_18 <= 451
x_19 <= 345
x_20 <= 297
x_21 <= 102
x_22 <= 324
x_23 <= 143
x_24 <= 493
x_25 <= 292
x_26 <= 471
x_27 <= 118
x_28 <= 368
x_29 <= 170
x_30 <= 450
x_31 <= 449
x_32 <= 223
x_33 <= 395
x_34 <= 390
x_35 <= 137
x_36 <= 113
x_37 <= 485
x_38 <= 178
x_39 <= 197
x_40 <= 478
x_41 <= 462
x_42 <= 62
x_43 <= 119
x_44 <= 206
x_45 <= 137
x_46 <= 233
x_47 <= 455
x_48 <= 325
x_49 <= 91
x_50 <= 255
x_51 <= 185
x_52 <= 289
x_53 <= 148
x_54 <= 302
x_55 <= 336
x_56 <= 275
x_57 <= 311
x_58 <= 199
x_59 <= 431
x_60 <= 349
x_61 <= 246
x_62 <= 496
x_63 <= 353
x_64 <= 482
x_65 <= 234
x_66 <= 151
x_67 <= 309
x_68 <= 262
x_69 <= 364
x_70 <= 231
x_71 <= 160
x_72 <= 479
x_73 <= 428
x_74 <= 235
x_75 <= 352
x_76 <= 223
x_77 <= 471
x_78 <= 482
x_79 <= 449
x_80 <= 181
x_81 <= 404
x_82 <= 462
x_83 <= 268
x_84 <= 443
x_85 <= 444
x_86 <= 434
x_87 <= 149
x_88 <= 93
x_89 <= 323
x_90 <= 291
x_91 <= 362
x_92 <= 414
x_93 <= 481
x_94 <= 311
x_95 <= 148
x_96 <= 70
x_97 <= 119
x_98 <= 259
x_99 <= 158




General

 x_0 x_1 x_2 x_3 x_4 x_5 x_6 x_7 x_8 x_9 x_10 x_11 x_12 x_13 x_14 x_15 x_16 x_17 x_18 x_19 x_20 x_21 x_22 x_23 x_24 x_25 x_26 x_27 x_28 x_29 x_30 x_31 x_32 x_33 x_34 x_35 x_36 x_37 x_38 x_39 x_40 x_41 x_42 x_43 x_44 x_45 x_46 x_47 x_48 x_49 x_50 x_51 x_52 x_53 x_54 x_55 x_56 x_57 x_58 x_59 x_60 x_61 x_62 x_63 x_64 x_65 x_66 x_67 x_68 x_69 x_70 x_71 x_72 x_73 x_74 x_75 x_76 x_77 x_78 x_79 x_80 x_81 x_82 x_83 x_84 x_85 x_86 x_87 x_88 x_89 x_90 x_91 x_92 x_93 x_94 x_95 x_96 x_97 x_98 x_99



End
